10 7
1 1 4 3 7 2 2 4 4 1 1 0
1 6 3 6 4 5 2 4 1 0
1 15 4 8 7 1 2 7 1 0
1 2 3 8 7 3 2 6 1 0
1 7 4 4 7 2 2 7 1 0
1 8 4 56 7 5 3 2 1 0
1 5 4 5 7 6 2 3 1 0
1 6 4 1 7 11 2 7 1 0
1 12 4 4 7 4 3 2 1 0
1 9 4 7 7 4 2 6 1 0